17	4	3
40	29	22	29	39	38	21	
0	0	0	0	0	10	5	7	7	9	2	3	2	3	4
6	5	0	0	0	7	2	10	3	3	1	2	5	8
5	5	2	8	10	2	7	10	2	1	9	3	9	11	17
3	8	0	0	0	5	1	3	10	2	10	2	9	12
3	3	0	5	0	3	1	9	8	10	4	1	6
200	7	6	0	0	1	9	8	8	6	6	2	7	17
150	1	0	1	0	9	2	8	9	5	1	1	17
200	0	7	0	9	9	7	7	9	9	7	3	14	15	17
200	0	0	9	0	7	3	8	10	2	10	3	10	13	17
150	0	8	2	0	10	5	10	8	2	9	1	17
250	9	0	0	0	1	3	8	8	10	3	2	12	17
200	0	0	2	7	4	8	5	2	6	9	1	17
8	5	2	2	0	2	5	6	9	4	4	2	16	17
6	0	0	0	5	6	1	6	3	10	8	1	17
5	10	7	2	4	2	10	2	1	8	3	1	17
2	8	3	0	1	10	8	5	7	6	5	1	17
0	0	0	0	0	10	10	3	5	1	9	0
